[on. 05. april 16:35:35 +0200 2023]  ./input/alternate_g_np_100/100-5-2.gcc
Set parameter Username
Academic license - for non-commercial use only - expires 2024-03-28
Set parameter TimeLimit to value 1800
Set parameter PreCrush to value 1
Set parameter LazyConstraints to value 1
Gurobi Optimizer version 10.0.1 build v10.0.1rc0 (linux64)

CPU model: AMD Ryzen 9 5950X 16-Core Processor, instruction set [SSE2|AVX|AVX2]
Thread count: 16 physical cores, 32 logical processors, using up to 32 threads

Optimize a model with 105 rows, 600 columns and 1600 nonzeros
Model fingerprint: 0x088fbae6
Variable types: 0 continuous, 600 integer (600 binary)
Coefficient statistics:
  Matrix range     [1e+00, 1e+00]
  Objective range  [2e+00, 1e+02]
  Bounds range     [1e+00, 1e+00]
  RHS range        [1e+00, 1e+00]
Presolve added 4 rows and 4 columns
Presolve time: 0.00s
Presolved: 109 rows, 604 columns, 1212 nonzeros
Variable types: 0 continuous, 604 integer (600 binary)

Root relaxation: objective 4.881000e+03, 1 iterations, 0.00 seconds (0.00 work units)

    Nodes    |    Current Node    |     Objective Bounds      |     Work
 Expl Unexpl |  Obj  Depth IntInf | Incumbent    BestBd   Gap | It/Node Time

     0     0 4881.00000    0    -          - 4881.00000      -     -    0s
     0     0 4881.00000    0    -          - 4881.00000      -     -    0s
     0     0 4881.00000    0    8          - 4881.00000      -     -    0s
H    0     0                    4659.0000000 4881.00000  4.76%     -    0s
H    0     0                    4804.0000000 4881.00000  1.60%     -    0s
H    0     0                    4881.0000000 4881.00000  0.00%     -    0s

Cutting planes:
  Lazy constraints: 17

Explored 1 nodes (4 simplex iterations) in 0.01 seconds (0.00 work units)
Thread count was 32 (of 32 available processors)

Solution count 3: 4881 4804 4659 

Optimal solution found (tolerance 1.00e-04)
Best objective 4.881000000000e+03, best bound 4.881000000000e+03, gap 0.0000%

User-callback calls 129, time in user-callback 0.00 sec
Minimal separator inequalities added: 21
Indegree inequalities added: 0
Passed solution check
[on. 05. april 16:35:35 +0200 2023]  done

